%chk=1.chk
%nprocshared=10
%mem=30GB
#P b3lyp/gen opt scf=(xqc,maxcon=128,maxcyc=128) scrf(cpcm,read,solvent=water) EmpiricalDispersion=GD3BJ 

13

2 1
   C     -1           45.872   23.406   27.290
   C     -1           44.543   22.897   26.739
   C      0           43.286   23.413   27.451
   C      0           43.376   23.217   28.966
   N      0           43.795   21.889   29.418
   C      0           43.152   20.746   29.102
   N      0           42.051   20.698   28.340
   N      0           43.678   19.602   29.541
   H      0           46.081   24.361   26.807
   H      0           46.644   22.666   27.077
   H      0           45.849   23.563   28.247
   H      0           44.486   23.140   25.802
   H      0           44.544   21.928   26.782
   H      0           43.164   24.355   27.253
   H      0           42.506   22.948   27.110
   H      0           43.997   23.871   29.322
   H      0           42.507   23.411   29.351
   H      0           44.492   21.819   29.917
   H      0           41.706   21.421   28.028
   H      0           41.678   19.941   28.174
   H      0           44.402   19.613   30.005
   H      0           43.300   18.851   29.360
   C     -1           46.149   18.411   32.720
   C     -1           44.648   18.391   32.568
   C      0           44.288   17.100   31.864
   C      0           42.815   16.751   31.803
   N      0           42.628   15.503   32.519
   C      0           41.612   14.686   32.287
   N      0           40.682   14.938   31.372
   N      0           41.494   13.602   33.044
   H      0           46.470   19.408   33.023
   H      0           46.444   17.686   33.478
   H      0           46.567   18.180   31.875
   H      0           44.215   18.441   33.435
   H      0           44.345   19.157   32.055
   H      0           44.627   17.144   30.956
   H      0           44.754   16.373   32.306
   H      0           42.281   17.456   32.202
   H      0           42.524   16.662   30.882
   H      0           43.214   15.267   33.103
   H      0           40.727   15.653   30.896
   H      0           40.034   14.385   31.256
   H      0           42.072   13.448   33.662
   H      0           40.842   13.056   32.916
   C     -1           48.372   15.911   24.520
   C     -1           47.036   15.570   23.897
   C      0           46.009   16.644   24.270
   C      0           45.273   16.531   25.455
   C      0           45.827   17.768   23.462
   C      0           44.376   17.524   25.840
   C      0           44.931   18.767   23.841
   C      0           44.222   18.635   25.023
   O      0           43.382   19.651   25.405
   H      0           49.069   15.086   24.374
   H      0           48.787   16.804   24.053
   H      0           48.236   16.062   25.468
   H      0           47.123   15.513   22.933
   H      0           46.736   14.701   24.206
   H      0           45.385   15.781   25.994
   H      0           46.305   17.851   22.668
   H      0           43.890   17.444   26.629
   H      0           44.811   19.517   23.304
   H      0           42.703   19.309   25.762
   C     -1           41.467   13.422   24.729
   C     -1           42.080   14.163   25.888
   C      0           42.140   13.465   27.235
   C      0           42.847   14.400   28.189
   C      0           40.743   13.090   27.745
   H      0           41.188   14.136   23.954
   H      0           42.197   12.711   24.342
   H      0           40.678   12.935   25.013
   H      0           42.986   14.405   25.639
   H      0           41.587   14.990   26.005
   H      0           42.624   12.628   27.158
   H      0           42.905   13.986   29.065
   H      0           43.741   14.584   27.859
   H      0           42.350   15.230   28.256
   H      0           40.820   12.648   28.605
   H      0           40.207   13.893   27.842
   H      0           40.317   12.492   27.111
   C      0           37.460   18.058   28.102
   O      0           36.015   19.027   26.455
   C      0           38.079   19.408   28.419
   O      0           35.097   17.660   27.820
   C      0           38.782   19.654   29.547
   O      0           41.738   17.676   28.572
   C      0           39.229   18.549   30.478
   O      0           41.036   18.268   26.593
   C      0           38.670   17.164   30.079
   O      0           38.869   18.965   31.768
   C      0           37.296   17.298   29.430
   O      0           39.477   16.377   29.196
   C      0           39.657   16.713   27.823
   C      0           38.353   17.214   27.171
   C      0           36.097   18.259   27.412
   C      0           40.903   17.621   27.648
   H      0           39.407   19.734   31.917
   H      0           39.036   20.685   29.794
   H      0           37.950   20.218   27.702
   H      0           40.307   18.394   30.424
   H      0           38.640   16.636   31.032
   H      0           36.870   16.312   29.247
   H      0           36.628   17.850   30.091
   H      0           39.883   15.813   27.252
   H      0           38.647   17.865   26.348
   H      0           37.780   16.347   26.842
   O      0           35.202   14.794   27.382
   H      0           35.029   13.972   27.362
   H      0           35.873   14.876   26.884
   C     -1           32.875   16.634   31.985
   C     -1           34.240   16.627   31.264
   C      0           35.349   15.783   31.904
   C      0           35.997   16.229   33.065
   C      0           35.737   14.577   31.310
   C      0           37.024   15.463   33.605
   C      0           36.765   13.826   31.862
   C      0           37.414   14.264   33.011
   H      0           32.251   17.439   31.597
   H      0           32.349   15.693   31.824
   H      0           33.048   16.773   32.929
   H      0           34.103   16.310   30.357
   H      0           34.554   17.543   31.200
   H      0           35.743   17.027   33.469
   H      0           35.305   14.278   30.543
   H      0           37.457   15.755   34.374
   H      0           37.021   13.026   31.462
   H      0           38.103   13.761   33.380
   C     -1           33.463   21.212   29.077
   C      0           33.045   20.684   27.729
   O      0           33.073   21.405   26.734
   C     -1           34.952   21.004   29.191
   H      0           32.958   20.696   29.894
   H      0           33.230   22.152   29.134
   H      0           35.397   21.428   28.440
   H      0           35.271   21.396   30.019
   H      0           35.147   20.054   29.187
   N      0           32.575   19.445   27.669
   C     -1           32.087   18.889   26.432
   C     -1           31.731   17.414   26.713
   C      0           31.321   16.545   25.541
   C      0           31.013   15.137   26.058
   C      0           30.543   14.205   24.939
   N      0           30.199   12.899   25.479
   H      0           31.224   19.458   26.087
   H      0           32.557   18.953   28.374
   H      0           32.758   18.931   25.732
   H      0           32.498   16.999   27.137
   H      0           31.008   17.401   27.360
   H      0           30.542   16.920   25.101
   H      0           32.031   16.513   24.881
   H      0           31.806   14.766   26.475
   H      0           30.329   15.188   26.744
   H      0           29.773   14.590   24.492
   H      0           31.241   14.112   24.272
   H      0           29.548   12.991   26.078
   H      0           29.922   12.373   24.817
   H      0           30.914   12.537   25.867
   C     -1           31.761   21.869   21.802
   C     -1           32.242   20.403   21.820
   C      0           33.766   20.250   22.033
   C      0           34.219   19.883   23.454
   N      0           33.896   18.494   23.771
   C      0           34.834   17.555   23.931
   N      0           36.131   17.833   23.815
   N      0           34.474   16.305   24.204
   H      0           31.663   22.232   22.825
   H      0           30.794   21.929   21.302
   H      0           32.406   22.415   21.326
   H      0           31.776   19.927   22.525
   H      0           31.997   19.980   20.982
   H      0           34.092   19.569   21.424
   H      0           34.194   21.084   21.782
   H      0           35.175   20.022   23.537
   H      0           33.790   20.472   24.095
   H      0           33.070   18.269   23.849
   H      0           36.390   18.633   23.634
   H      0           36.712   17.209   23.924
   H      0           33.641   16.105   24.278
   H      0           35.074   15.698   24.310
   C     -1           40.763   26.456   26.133
   C      0           39.756   26.273   27.267
   O      0           39.267   27.278   27.802
   H      0           40.354   27.087   25.344
   H      0           41.682   26.947   26.453
   H      0           40.906   25.551   25.816
   N      0           39.423   25.051   27.680
   C     -1           38.551   24.807   28.833
   C      0           39.217   23.791   29.752
   O      0           40.012   23.000   29.251
   C      0           37.211   24.133   28.554
   C      0           36.230   24.669   29.560
   C      0           36.636   24.448   27.227
   H      0           39.737   24.358   27.279
   H      0           38.405   25.701   29.180
   H      0           37.365   23.176   28.596
   H      0           35.362   24.262   29.414
   H      0           36.538   24.460   30.456
   H      0           36.157   25.631   29.460
   H      0           35.789   23.986   27.123
   H      0           36.493   25.405   27.155
   H      0           37.248   24.160   26.532
   N      0           38.994   23.745   31.065
   C     -1           39.394   22.611   31.867
   C      0           38.505   22.665   33.102
   O      0           37.885   23.692   33.416
   C      0           40.943   22.687   32.147
   C      0           41.446   23.269   33.424
   O      0           41.297   21.311   32.139
   H      0           38.613   24.410   31.455
   H      0           39.273   21.750   31.437
   H      0           41.327   23.294   31.495
   H      0           42.122   21.236   32.281
   H      0           42.415   23.239   33.434
   H      0           41.151   24.190   33.499
   H      0           41.099   22.757   34.172
   N      0           38.365   21.521   33.776
   C     -1           37.444   21.422   34.889
   C      0           38.145   21.154   36.206
   O      0           39.301   20.716   36.260
   C      0           36.421   20.306   34.615
   S      0           35.638   20.391   32.993
   H      0           38.903   20.867   33.627
   H      0           36.998   22.280   34.969
   H      0           36.864   19.448   34.703
   H      0           35.732   20.340   35.297
   H      0           35.015   19.385   32.796
   N      0           37.461   21.446   37.291
   C     -1           37.998   21.100   38.582
   H      0           38.563   21.941   38.984
   H      0           37.189   20.861   39.273
   H      0           36.700   21.844   37.247
   H      0           38.582   20.333   38.474

O     0
6-31G(d')
****
N     0
6-31G(d')
****
C     0
6-31G
****
H     0
6-31G(d')
****                             
S     0
6-31G(d')
****


radii=uff
alpha=1.2
eps=4.0

